experiment/data/lkh-res/Vrp-Set-P-n76/Vrp-Set-P-n76-lkh/0.lkh1.log
PARAMETER_FILE = baseline_results/cvrp_lkh/Vrp-Set-P-n76/Vrp-Set-P-n76-lkh/0.lkh1.par
Reading PROBLEM_FILE: "baseline_results/cvrp_lkh/Vrp-Set-P-n76/Vrp-Set-P-n76-lkh/0.lkh1.vrp" ... done
ASCENT_CANDIDATES = 50
BACKBONE_TRIALS = 0
BACKTRACKING = NO
# BWTSP =
# CANDIDATE_FILE =
CANDIDATE_SET_TYPE = ALPHA
# DISTANCE =
DEPOT = 1
# EDGE_FILE =
EXCESS = 0.0131579
EXTERNAL_SALESMEN = 0
EXTRA_CANDIDATES = 0 
EXTRA_CANDIDATE_SET_TYPE = QUADRANT
GAIN23 = NO
GAIN_CRITERION = YES
INITIAL_PERIOD = 100
INITIAL_STEP_SIZE = 1
INITIAL_TOUR_ALGORITHM = WALK
# INITIAL_TOUR_FILE = 
INITIAL_TOUR_FRACTION = 1.000
# INPUT_TOUR_FILE = 
KICK_TYPE = 4
KICKS = 1
# MAX_BREADTH =
MAKESPAN = NO
MAX_CANDIDATES = 5 
MAX_SWAPS = 0
MAX_TRIALS = 10000
# MERGE_TOUR_FILE =
MOVE_TYPE = 5 SPECIAL
MTSP_MIN_SIZE = 1
MTSP_MAX_SIZE = 75
# MTSP_SOLUTION_FILE = 
# NONSEQUENTIAL_MOVE_TYPE = 5
# OPTIMUM =
OUTPUT_TOUR_FILE = baseline_results/cvrp_lkh/Vrp-Set-P-n76/Vrp-Set-P-n76-lkh/0.lkh1.tour
PATCHING_A = 1 
PATCHING_C = 0 
# PI_FILE = 
POPMUSIC_INITIAL_TOUR = NO
POPMUSIC_MAX_NEIGHBORS = 5
POPMUSIC_SAMPLE_SIZE = 10
POPMUSIC_SOLUTIONS = 50
POPMUSIC_TRIALS = 1
POPULATION_SIZE = 10
PRECISION = 100
PROBLEM_FILE = baseline_results/cvrp_lkh/Vrp-Set-P-n76/Vrp-Set-P-n76-lkh/0.lkh1.vrp
RECOMBINATION = IPT
RESTRICTED_SEARCH = YES
RUNS = 1
SALESMEN = 4
SCALE = 1
SEED = 1234
# SINTEF_SOLUTION_FILE = 
STOP_AT_OPTIMUM = YES
SUBGRADIENT = YES
# SUBPROBLEM_SIZE =
# SUBPROBLEM_TOUR_FILE = 
SUBSEQUENT_MOVE_TYPE = 5 SPECIAL
SUBSEQUENT_PATCHING = YES
# TIME_LIMIT =
# TOTAL_TIME_LIMIT =
# TOUR_FILE = 
TRACE_LEVEL = 1
VEHICLES = 4

Lower bound = 56126.0, Ascent time = 0.01 sec.
Cand.min = 5, Cand.avg = 5.0, Cand.max = 5
Preprocessing time = 0.01 sec.
* 1: Cost = 0_65218, Time = 0.00 sec. 
Writing OUTPUT_TOUR_FILE: "baseline_results/cvrp_lkh/Vrp-Set-P-n76/Vrp-Set-P-n76-lkh/0.lkh1.tour" ... done
* 2: Cost = 0_64893, Time = 0.01 sec. 
Writing OUTPUT_TOUR_FILE: "baseline_results/cvrp_lkh/Vrp-Set-P-n76/Vrp-Set-P-n76-lkh/0.lkh1.tour" ... done
* 5: Cost = 0_64653, Time = 0.01 sec. 
Writing OUTPUT_TOUR_FILE: "baseline_results/cvrp_lkh/Vrp-Set-P-n76/Vrp-Set-P-n76-lkh/0.lkh1.tour" ... done
* 6: Cost = 0_62436, Time = 0.02 sec. 
Writing OUTPUT_TOUR_FILE: "baseline_results/cvrp_lkh/Vrp-Set-P-n76/Vrp-Set-P-n76-lkh/0.lkh1.tour" ... done
* 7: Cost = 0_61510, Time = 0.02 sec. 
Writing OUTPUT_TOUR_FILE: "baseline_results/cvrp_lkh/Vrp-Set-P-n76/Vrp-Set-P-n76-lkh/0.lkh1.tour" ... done
* 22: Cost = 0_61402, Time = 0.04 sec. 
Writing OUTPUT_TOUR_FILE: "baseline_results/cvrp_lkh/Vrp-Set-P-n76/Vrp-Set-P-n76-lkh/0.lkh1.tour" ... done
* 23: Cost = 0_61265, Time = 0.04 sec. 
Writing OUTPUT_TOUR_FILE: "baseline_results/cvrp_lkh/Vrp-Set-P-n76/Vrp-Set-P-n76-lkh/0.lkh1.tour" ... done
* 35: Cost = 0_61244, Time = 0.06 sec. 
Writing OUTPUT_TOUR_FILE: "baseline_results/cvrp_lkh/Vrp-Set-P-n76/Vrp-Set-P-n76-lkh/0.lkh1.tour" ... done
* 49: Cost = 0_61126, Time = 0.07 sec. 
Writing OUTPUT_TOUR_FILE: "baseline_results/cvrp_lkh/Vrp-Set-P-n76/Vrp-Set-P-n76-lkh/0.lkh1.tour" ... done
* 52: Cost = 0_61114, Time = 0.07 sec. 
Writing OUTPUT_TOUR_FILE: "baseline_results/cvrp_lkh/Vrp-Set-P-n76/Vrp-Set-P-n76-lkh/0.lkh1.tour" ... done
* 57: Cost = 0_60942, Time = 0.07 sec. 
Writing OUTPUT_TOUR_FILE: "baseline_results/cvrp_lkh/Vrp-Set-P-n76/Vrp-Set-P-n76-lkh/0.lkh1.tour" ... done
* 93: Cost = 0_60827, Time = 0.11 sec. 
Writing OUTPUT_TOUR_FILE: "baseline_results/cvrp_lkh/Vrp-Set-P-n76/Vrp-Set-P-n76-lkh/0.lkh1.tour" ... done
* 94: Cost = 0_60825, Time = 0.11 sec. 
Writing OUTPUT_TOUR_FILE: "baseline_results/cvrp_lkh/Vrp-Set-P-n76/Vrp-Set-P-n76-lkh/0.lkh1.tour" ... done
* 105: Cost = 0_60550, Time = 0.12 sec. 
Writing OUTPUT_TOUR_FILE: "baseline_results/cvrp_lkh/Vrp-Set-P-n76/Vrp-Set-P-n76-lkh/0.lkh1.tour" ... done
* 301: Cost = 0_60491, Time = 0.32 sec. 
Writing OUTPUT_TOUR_FILE: "baseline_results/cvrp_lkh/Vrp-Set-P-n76/Vrp-Set-P-n76-lkh/0.lkh1.tour" ... done
* 771: Cost = 0_60442, Time = 0.80 sec. 
Writing OUTPUT_TOUR_FILE: "baseline_results/cvrp_lkh/Vrp-Set-P-n76/Vrp-Set-P-n76-lkh/0.lkh1.tour" ... done
* 786: Cost = 0_60292, Time = 0.83 sec. 
Writing OUTPUT_TOUR_FILE: "baseline_results/cvrp_lkh/Vrp-Set-P-n76/Vrp-Set-P-n76-lkh/0.lkh1.tour" ... done
* 8639: Cost = 0_59816, Time = 10.45 sec. 
Writing OUTPUT_TOUR_FILE: "baseline_results/cvrp_lkh/Vrp-Set-P-n76/Vrp-Set-P-n76-lkh/0.lkh1.tour" ... done
Population:
  1: 0_59816
Run 1: Cost = 0_59816, Time = 12.40 sec. 

Successes/Runs = 0/1 
Cost.min = 59816, Cost.avg = 59816.00, Cost.max = 59816
Gap.min = 0.0000%, Gap.avg = 0.0000%, Gap.max = 0.0000%
Penalty.min = 0, Penalty.avg = 0.00, Penalty.max = 0
Trials.min = 10000, Trials.avg = 10000.0, Trials.max = 10000
Time.min = 12.40 sec., Time.avg = 12.40 sec., Time.max = 12.40 sec.
Time.total = 12.41 sec.
  Size.min = 16, Size.max = 22, Penalty = 0
  Cost.min = 12702, Cost.max = 18285, Cost.sum = 59816
Best CVRP solution:
  Cost = 0_59816

