experiment/data/lkh-res/Vrp-Set-P-n76/Vrp-Set-P-n76-lkh/0.lkh1.tour
NAME : 0.59816.tour
COMMENT : Length = 59816
COMMENT : Found by LKH-3 [Keld Helsgaun] Tue Apr  9 02:43:34 2024
TYPE : TOUR
DIMENSION : 79
TOUR_SECTION
1
35
53
28
46
30
6
48
37
70
72
61
71
21
38
16
58
14
55
20
9
47
68
77
52
17
4
45
33
10
40
32
56
26
51
19
25
50
57
24
64
34
7
78
27
8
36
54
15
60
12
67
66
39
11
59
73
13
41
18
79
5
31
49
22
62
23
65
43
42
44
2
74
63
29
75
3
69
76
-1
EOF
